76 21 44 29 69 68 3 73 34 27 15 50 59 30 52 90 28 55 14 13 24 36 85 42 49 98 56 81 67 12 93 9 80 77 74 83 88 5 16 4 8 60 23 39 79 94 53 82 11 7 43 72 40 66 84 71 19 48 18 41 17 78 58 65 75 89 2 51 26 91 62 96 35 37 87 54 92 1 97 61 0 6 46 70 99 10 95 57 32 20 47 22 33 45 25 38 63 64 86 31